# Solution for model RMP_EVSP
# Objective value = 6.0242399999999994e+04
q_0 0
q_1 0
q_2 0
q_3 0
q_4 0
q_5 0
q_6 0
q_7 0
q_8 0
q_9 0
q_10 0
q_11 0
q_12 0
q_13 0
q_14 0
a[0] 0
a[1] 0
a[2] 0
a[3] 0
a[4] 0
a[5] 0
a[6] 0
a[7] 0
a[8] 0
a[9] 0
a[10] 0
a[11] 0
a[12] 0
a[13] 0
a[14] 0
a[15] 0
a[16] 0
a[17] 0
a[18] 0
a[19] 0
a[20] 0
a[21] 0
a[22] 0
a[23] 0
a[24] 0
a[25] 0
a[26] 0
a[27] 0
a[28] 0
a[29] 0
a[30] 0
a[31] 0
a[32] 0
a[33] 0
a[34] 0
a[35] 0
a[36] 0
a[37] 0
a[38] 0
a[39] 0
a[40] 0
a[41] 0
a[42] 0
a[43] 0
a[44] 0
a[45] 0
a[46] 0
a[47] 0
a[48] 0
a[49] 0
a[50] 0
a[51] 0
a[52] 0
a[53] 0
a[54] 0
a[55] 0
a[56] 0
a[57] 0
a[58] 0
a[59] 0
a[60] 0
a[61] 0
a[62] 0
a[63] 0
a[64] 0
a[65] 0
a[66] 0
a[67] 0
a[68] 0
a[69] 0
a[70] 0
a[71] 0
a[72] 0
a[73] 0
a[74] 0
a[75] 0
a[76] 0
a[77] 0
a[78] 0
a[79] 0
a[80] 0
a[81] 0
a[82] 0
a[83] 0
a[84] 0
a[85] 0
a[86] 0
a[87] 0
a[88] 0
a[89] 0
a[90] 0
a[91] 0
a[92] 0
a[93] 0
a[94] 0
a[95] 0
a[96] 0
a[97] 0
a[98] 0
a[99] 0
a[100] 1
a[101] 0
a[102] 0
a[103] 0
a[104] 0
a[105] 0
a[106] 0
a[107] 0
a[108] 0
a[109] 0
a[110] 0
a[111] 0
a[112] 0
a[113] 0
a[114] 0
a[115] 0
a[116] 0
a[117] 0
a[118] 0
a[119] 0
a[120] 0
a[121] 0
a[122] 0
a[123] 0
a[124] 0
a[125] 0
a[126] 0
a[127] 0
a[128] 0
a[129] 0
a[130] 0
a[131] 0
a[132] 0
a[133] 0
a[134] 0
a[135] 0
a[136] 0
a[137] 0
a[138] 0
a[139] 0
a[140] 0
a[141] 0
a[142] 0
a[143] 0
a[144] 1
a[145] 0
a[146] 0
a[147] 0
a[148] 0
a[149] 0
a[150] 0
a[151] 0
a[152] 0
a[153] 0
a[154] 0
a[155] 0
a[156] 0
a[157] 0
a[158] 0
a[159] 0
a[160] 0
a[161] 0
a[162] 0
a[163] 0
a[164] 0
a[165] 0
a[166] 0
a[167] 0
a[168] 0
a[169] 0
a[170] 0
a[171] 0
a[172] 0
a[173] 0
a[174] 0
a[175] 0
a[176] 0
a[177] 0
a[178] 0
a[179] 0
a[180] 0
a[181] 0
a[182] 0
a[183] 0
a[184] 0
a[185] 0
a[186] 0
a[187] 0
